\ENCODING=ISO-8859-1
\Problem name: IloCplex

Minimize
 obj: 823 x_20 + 83 x_21 + 845 x_22 + 856 x_23 + 78 x_24 + 637 x_25 + 573 x_26
      + 864 x_27 + 307 x_28 + 494 x_29 + 314 x_30 + 220 x_31 + 653 x_32
      + 559 x_33 + 301 x_34 + 528 x_35 + 89 x_36 + 197 x_37 + 392 x_38
      + 578 x_39 + 841 x_40 + 153 x_41 + 129 x_42 + 418 x_43 + 694 x_44
      + 588 x_45 + 981 x_46 + 573 x_47 + 412 x_48 + 414 x_49 + 702 x_50
      + 235 x_51 + 498 x_52 + 548 x_53 + 91 x_54 + 577 x_55 + 185 x_56
      + 665 x_57 + 442 x_58 + 493 x_59 + 159 x_60 + 756 x_61 + 713 x_62
      + 813 x_63 + 315 x_64 + id2068
Subject To
 id306:  u_1 <= 20
 id308:  u_2 <= 20
 id310:  u_3 <= 20
 id312:  u_4 <= 20
 id314:  u_5 <= 20
 id316:  u_6 <= 20
 id318:  u_7 <= 20
 id320:  u_8 <= 20
 id322:  u_9 <= 20
 id324:  u_10 <= 20
 id326:  u_11 <= 20
 id328:  u_12 <= 20
 id330:  u_13 <= 20
 id332:  u_14 <= 20
 id334:  u_15 <= 20
 id336:  u_16 <= 20
 id338:  u_17 <= 20
 id340:  u_18 <= 20
 id342:  u_19 <= 20
 id344:  u_20 <= 20
 id346:  u_0  = 0
 id348:  x_0  = 0
 id350:  x_1  = 0
 id352:  x_2  = 0
 id354:  x_3  = 0
 id356:  x_4  = 0
 id358:  x_5  = 0
 id360:  x_6  = 0
 id362:  x_7  = 0
 id364:  x_8  = 0
 id366:  x_9  = 0
 id368:  x_10  = 0
 id370:  x_11  = 0
 id372:  x_12  = 0
 id374:  x_13  = 0
 id376:  x_14  = 0
 id378:  x_15  = 0
 id380:  x_16  = 0
 id382:  x_17  = 0
 id384:  x_18  = 0
 id386:  x_19  = 0
 id388:  x_20 + x_21 + x_22 + x_23 + x_24 + x_25 + x_26 + x_27 + x_28 + x_29
         + x_30 + x_31 + x_32 + x_33 + x_34 + x_35 + x_36 + x_37 + x_38 + x_39
         + x_40 + x_41 + x_42 + x_43 + x_44 + x_45 + x_46 + x_47 + x_48 + x_49
         + x_50 + x_51 + x_52 + x_53 + x_54 + x_55 + x_56 + x_57 + x_58 + x_59
         + x_60 + x_61 + x_62 + x_63 + x_64  = 19
 id390:  u_1 + u_2 + u_3 + u_4 + u_5 + u_6 + u_7 + u_8 + u_9 + u_10 + u_11
         + u_12 + u_13 + u_14 + u_15 + u_16 + u_17 + u_18 + u_19 + u_20  = 210
 id393:  u_0 - 20 u2_0 <= 0
 id396:  u_1 - 20 u2_1 <= 0
 id399:  u_2 - 20 u2_2 <= 0
 id402:  u_3 - 20 u2_3 <= 0
 id405:  u_4 - 20 u2_4 <= 0
 id408:  u_5 - 20 u2_5 <= 0
 id411:  u_6 - 20 u2_6 <= 0
 id414:  u_7 - 20 u2_7 <= 0
 id417:  u_8 - 20 u2_8 <= 0
 id420:  u_9 - 20 u2_9 <= 0
 id423:  u_10 - 20 u2_10 <= 0
 id426:  u_11 - 20 u2_11 <= 0
 id429:  u_12 - 20 u2_12 <= 0
 id432:  u_13 - 20 u2_13 <= 0
 id435:  u_14 - 20 u2_14 <= 0
 id438:  u_15 - 20 u2_15 <= 0
 id441:  u_16 - 20 u2_16 <= 0
 id444:  u_17 - 20 u2_17 <= 0
 id447:  u_18 - 20 u2_18 <= 0
 id450:  u_19 - 20 u2_19 <= 0
 id453:  u_20 - 20 u2_20 <= 0
 id392:  u2_0 + u2_1 + u2_2 + u2_3 + u2_4 + u2_5 + u2_6 + u2_7 + u2_8 + u2_9
         + u2_10 + u2_11 + u2_12 + u2_13 + u2_14 + u2_15 + u2_16 + u2_17
         + u2_18 + u2_19 + u2_20  = 20
 id457:  - x_0 + f_0 <= 0
 id459:  - x_1 + f_1 <= 0
 id461:  - x_2 + f_2 <= 0
 id463:  - x_3 + f_3 <= 0
 id465:  - x_4 + f_4 <= 0
 id467:  - x_5 + f_5 <= 0
 id469:  - x_6 + f_6 <= 0
 id471:  - x_7 + f_7 <= 0
 id473:  - x_8 + f_8 <= 0
 id475:  - x_9 + f_9 <= 0
 id477:  - x_10 + f_10 <= 0
 id479:  - x_11 + f_11 <= 0
 id481:  - x_12 + f_12 <= 0
 id483:  - x_13 + f_13 <= 0
 id485:  - x_14 + f_14 <= 0
 id487:  - x_15 + f_15 <= 0
 id489:  - x_16 + f_16 <= 0
 id491:  - x_17 + f_17 <= 0
 id493:  - x_18 + f_18 <= 0
 id495:  - x_19 + f_19 <= 0
 id497:  - x_20 + f_20 <= 0
 id499:  - x_21 + f_21 <= 0
 id501:  - x_22 + f_22 <= 0
 id503:  - x_23 + f_23 <= 0
 id505:  - x_24 + f_24 <= 0
 id507:  - x_25 + f_25 <= 0
 id509:  - x_26 + f_26 <= 0
 id511:  - x_27 + f_27 <= 0
 id513:  - x_28 + f_28 <= 0
 id515:  - x_29 + f_29 <= 0
 id517:  - x_30 + f_30 <= 0
 id519:  - x_31 + f_31 <= 0
 id521:  - x_32 + f_32 <= 0
 id523:  - x_33 + f_33 <= 0
 id525:  - x_34 + f_34 <= 0
 id527:  - x_35 + f_35 <= 0
 id529:  - x_36 + f_36 <= 0
 id531:  - x_37 + f_37 <= 0
 id533:  - x_38 + f_38 <= 0
 id535:  - x_39 + f_39 <= 0
 id537:  - x_40 + f_40 <= 0
 id539:  - x_41 + f_41 <= 0
 id541:  - x_42 + f_42 <= 0
 id543:  - x_43 + f_43 <= 0
 id545:  - x_44 + f_44 <= 0
 id547:  - x_45 + f_45 <= 0
 id549:  - x_46 + f_46 <= 0
 id551:  - x_47 + f_47 <= 0
 id553:  - x_48 + f_48 <= 0
 id555:  - x_49 + f_49 <= 0
 id557:  - x_50 + f_50 <= 0
 id559:  - x_51 + f_51 <= 0
 id561:  - x_52 + f_52 <= 0
 id563:  - x_53 + f_53 <= 0
 id565:  - x_54 + f_54 <= 0
 id567:  - x_55 + f_55 <= 0
 id569:  - x_56 + f_56 <= 0
 id571:  - x_57 + f_57 <= 0
 id573:  - x_58 + f_58 <= 0
 id575:  - x_59 + f_59 <= 0
 id577:  - x_60 + f_60 <= 0
 id579:  - x_61 + f_61 <= 0
 id581:  - x_62 + f_62 <= 0
 id583:  - x_63 + f_63 <= 0
 id585:  - x_64 + f_64 <= 0
 id587:  - x_0 + f_65 <= 0
 id589:  - x_1 + f_66 <= 0
 id591:  - x_2 + f_67 <= 0
 id593:  - x_3 + f_68 <= 0
 id595:  - x_4 + f_69 <= 0
 id597:  - x_5 + f_70 <= 0
 id599:  - x_6 + f_71 <= 0
 id601:  - x_7 + f_72 <= 0
 id603:  - x_8 + f_73 <= 0
 id605:  - x_9 + f_74 <= 0
 id607:  - x_10 + f_75 <= 0
 id609:  - x_11 + f_76 <= 0
 id611:  - x_12 + f_77 <= 0
 id613:  - x_13 + f_78 <= 0
 id615:  - x_14 + f_79 <= 0
 id617:  - x_15 + f_80 <= 0
 id619:  - x_16 + f_81 <= 0
 id621:  - x_17 + f_82 <= 0
 id623:  - x_18 + f_83 <= 0
 id625:  - x_19 + f_84 <= 0
 id627:  - x_20 + f_85 <= 0
 id629:  - x_21 + f_86 <= 0
 id631:  - x_22 + f_87 <= 0
 id633:  - x_23 + f_88 <= 0
 id635:  - x_24 + f_89 <= 0
 id637:  - x_25 + f_90 <= 0
 id639:  - x_26 + f_91 <= 0
 id641:  - x_27 + f_92 <= 0
 id643:  - x_28 + f_93 <= 0
 id645:  - x_29 + f_94 <= 0
 id647:  - x_30 + f_95 <= 0
 id649:  - x_31 + f_96 <= 0
 id651:  - x_32 + f_97 <= 0
 id653:  - x_33 + f_98 <= 0
 id655:  - x_34 + f_99 <= 0
 id657:  - x_35 + f_100 <= 0
 id659:  - x_36 + f_101 <= 0
 id661:  - x_37 + f_102 <= 0
 id663:  - x_38 + f_103 <= 0
 id665:  - x_39 + f_104 <= 0
 id667:  - x_40 + f_105 <= 0
 id669:  - x_41 + f_106 <= 0
 id671:  - x_42 + f_107 <= 0
 id673:  - x_43 + f_108 <= 0
 id675:  - x_44 + f_109 <= 0
 id677:  - x_45 + f_110 <= 0
 id679:  - x_46 + f_111 <= 0
 id681:  - x_47 + f_112 <= 0
 id683:  - x_48 + f_113 <= 0
 id685:  - x_49 + f_114 <= 0
 id687:  - x_50 + f_115 <= 0
 id689:  - x_51 + f_116 <= 0
 id691:  - x_52 + f_117 <= 0
 id693:  - x_53 + f_118 <= 0
 id695:  - x_54 + f_119 <= 0
 id697:  - x_55 + f_120 <= 0
 id699:  - x_56 + f_121 <= 0
 id701:  - x_57 + f_122 <= 0
 id703:  - x_58 + f_123 <= 0
 id705:  - x_59 + f_124 <= 0
 id707:  - x_60 + f_125 <= 0
 id709:  - x_61 + f_126 <= 0
 id711:  - x_62 + f_127 <= 0
 id713:  - x_63 + f_128 <= 0
 id715:  - x_64 + f_129 <= 0
 id717:  f_0 + f_1 + f_2 + f_3 + f_4 + f_5 + f_6 + f_7 + f_8 + f_9 + f_10
         + f_11 + f_12 + f_13 + f_14 + f_15 + f_16 + f_17 + f_18 + f_19 + f_20
         + f_21 + f_22 + f_23 + f_24 + f_25 + f_26 + f_27 + f_28 + f_29 + f_30
         + f_31 + f_32 + f_33 + f_34 + f_35 + f_36 + f_37 + f_38 + f_39 + f_40
         + f_41 + f_42 + f_43 + f_44 + f_45 + f_46 + f_47 + f_48 + f_49 + f_50
         + f_51 + f_52 + f_53 + f_54 + f_55 + f_56 + f_57 + f_58 + f_59 + f_60
         + f_61 + f_62 + f_63 + f_64 + f_65 + f_66 + f_67 + f_68 + f_69 + f_70
         + f_71 + f_72 + f_73 + f_74 + f_75 + f_76 + f_77 + f_78 + f_79 + f_80
         + f_81 + f_82 + f_83 + f_84 + f_85 + f_86 + f_87 + f_88 + f_89 + f_90
         + f_91 + f_92 + f_93 + f_94 + f_95 + f_96 + f_97 + f_98 + f_99 + f_100
         + f_101 + f_102 + f_103 + f_104 + f_105 + f_106 + f_107 + f_108
         + f_109 + f_110 + f_111 + f_112 + f_113 + f_114 + f_115 + f_116
         + f_117 + f_118 + f_119 + f_120 + f_121 + f_122 + f_123 + f_124
         + f_125 + f_126 + f_127 + f_128 + f_129  = 19
 id720:  - u_0 + f_0 <= 0
 id721:  - u_1 + f_0 <= 0
 id724:  - u_0 + f_0 <= 0
 id725:  - u_1 + f_0 <= 0
 id728:  - u_0 + f_1 <= 0
 id729:  - u_2 + f_1 <= 0
 id732:  - u_0 + f_1 <= 0
 id733:  - u_2 + f_1 <= 0
 id736:  - u_0 + f_2 <= 0
 id737:  - u_3 + f_2 <= 0
 id740:  - u_0 + f_2 <= 0
 id741:  - u_3 + f_2 <= 0
 id744:  - u_0 + f_3 <= 0
 id745:  - u_4 + f_3 <= 0
 id748:  - u_0 + f_3 <= 0
 id749:  - u_4 + f_3 <= 0
 id752:  - u_0 + f_4 <= 0
 id753:  - u_5 + f_4 <= 0
 id756:  - u_0 + f_4 <= 0
 id757:  - u_5 + f_4 <= 0
 id760:  - u_0 + f_5 <= 0
 id761:  - u_6 + f_5 <= 0
 id764:  - u_0 + f_5 <= 0
 id765:  - u_6 + f_5 <= 0
 id768:  - u_0 + f_6 <= 0
 id769:  - u_7 + f_6 <= 0
 id772:  - u_0 + f_6 <= 0
 id773:  - u_7 + f_6 <= 0
 id776:  - u_0 + f_7 <= 0
 id777:  - u_8 + f_7 <= 0
 id780:  - u_0 + f_7 <= 0
 id781:  - u_8 + f_7 <= 0
 id784:  - u_0 + f_8 <= 0
 id785:  - u_9 + f_8 <= 0
 id788:  - u_0 + f_8 <= 0
 id789:  - u_9 + f_8 <= 0
 id792:  - u_0 + f_9 <= 0
 id793:  - u_10 + f_9 <= 0
 id796:  - u_0 + f_9 <= 0
 id797:  - u_10 + f_9 <= 0
 id800:  - u_0 + f_10 <= 0
 id801:  - u_11 + f_10 <= 0
 id804:  - u_0 + f_10 <= 0
 id805:  - u_11 + f_10 <= 0
 id808:  - u_0 + f_11 <= 0
 id809:  - u_12 + f_11 <= 0
 id812:  - u_0 + f_11 <= 0
 id813:  - u_12 + f_11 <= 0
 id816:  - u_0 + f_12 <= 0
 id817:  - u_13 + f_12 <= 0
 id820:  - u_0 + f_12 <= 0
 id821:  - u_13 + f_12 <= 0
 id824:  - u_0 + f_13 <= 0
 id825:  - u_14 + f_13 <= 0
 id828:  - u_0 + f_13 <= 0
 id829:  - u_14 + f_13 <= 0
 id832:  - u_0 + f_14 <= 0
 id833:  - u_15 + f_14 <= 0
 id836:  - u_0 + f_14 <= 0
 id837:  - u_15 + f_14 <= 0
 id840:  - u_0 + f_15 <= 0
 id841:  - u_16 + f_15 <= 0
 id844:  - u_0 + f_15 <= 0
 id845:  - u_16 + f_15 <= 0
 id848:  - u_0 + f_16 <= 0
 id849:  - u_17 + f_16 <= 0
 id852:  - u_0 + f_16 <= 0
 id853:  - u_17 + f_16 <= 0
 id856:  - u_0 + f_17 <= 0
 id857:  - u_18 + f_17 <= 0
 id860:  - u_0 + f_17 <= 0
 id861:  - u_18 + f_17 <= 0
 id864:  - u_0 + f_18 <= 0
 id865:  - u_19 + f_18 <= 0
 id868:  - u_0 + f_18 <= 0
 id869:  - u_19 + f_18 <= 0
 id872:  - u_0 + f_19 <= 0
 id873:  - u_20 + f_19 <= 0
 id876:  - u_0 + f_19 <= 0
 id877:  - u_20 + f_19 <= 0
 id880:  - u_1 + f_20 <= 0
 id881:  - u_2 + f_20 <= 0
 id884:  - u_1 + f_20 <= 0
 id885:  - u_2 + f_20 <= 0
 id888:  - u_1 + f_21 <= 0
 id889:  - u_3 + f_21 <= 0
 id892:  - u_1 + f_21 <= 0
 id893:  - u_3 + f_21 <= 0
 id896:  - u_1 + f_22 <= 0
 id897:  - u_4 + f_22 <= 0
 id900:  - u_1 + f_22 <= 0
 id901:  - u_4 + f_22 <= 0
 id904:  - u_1 + f_23 <= 0
 id905:  - u_5 + f_23 <= 0
 id908:  - u_1 + f_23 <= 0
 id909:  - u_5 + f_23 <= 0
 id912:  - u_1 + f_24 <= 0
 id913:  - u_6 + f_24 <= 0
 id916:  - u_1 + f_24 <= 0
 id917:  - u_6 + f_24 <= 0
 id920:  - u_1 + f_25 <= 0
 id921:  - u_7 + f_25 <= 0
 id924:  - u_1 + f_25 <= 0
 id925:  - u_7 + f_25 <= 0
 id928:  - u_1 + f_26 <= 0
 id929:  - u_8 + f_26 <= 0
 id932:  - u_1 + f_26 <= 0
 id933:  - u_8 + f_26 <= 0
 id936:  - u_1 + f_27 <= 0
 id937:  - u_15 + f_27 <= 0
 id940:  - u_1 + f_27 <= 0
 id941:  - u_15 + f_27 <= 0
 id944:  - u_1 + f_28 <= 0
 id945:  - u_19 + f_28 <= 0
 id948:  - u_1 + f_28 <= 0
 id949:  - u_19 + f_28 <= 0
 id952:  - u_2 + f_29 <= 0
 id953:  - u_18 + f_29 <= 0
 id956:  - u_2 + f_29 <= 0
 id957:  - u_18 + f_29 <= 0
 id960:  - u_3 + f_30 <= 0
 id961:  - u_4 + f_30 <= 0
 id964:  - u_3 + f_30 <= 0
 id965:  - u_4 + f_30 <= 0
 id968:  - u_4 + f_31 <= 0
 id969:  - u_7 + f_31 <= 0
 id972:  - u_4 + f_31 <= 0
 id973:  - u_7 + f_31 <= 0
 id976:  - u_4 + f_32 <= 0
 id977:  - u_12 + f_32 <= 0
 id980:  - u_4 + f_32 <= 0
 id981:  - u_12 + f_32 <= 0
 id984:  - u_4 + f_33 <= 0
 id985:  - u_15 + f_33 <= 0
 id988:  - u_4 + f_33 <= 0
 id989:  - u_15 + f_33 <= 0
 id992:  - u_5 + f_34 <= 0
 id993:  - u_7 + f_34 <= 0
 id996:  - u_5 + f_34 <= 0
 id997:  - u_7 + f_34 <= 0
 id1000: - u_5 + f_35 <= 0
 id1001: - u_16 + f_35 <= 0
 id1004: - u_5 + f_35 <= 0
 id1005: - u_16 + f_35 <= 0
 id1008: - u_5 + f_36 <= 0
 id1009: - u_17 + f_36 <= 0
 id1012: - u_5 + f_36 <= 0
 id1013: - u_17 + f_36 <= 0
 id1016: - u_5 + f_37 <= 0
 id1017: - u_19 + f_37 <= 0
 id1020: - u_5 + f_37 <= 0
 id1021: - u_19 + f_37 <= 0
 id1024: - u_6 + f_38 <= 0
 id1025: - u_9 + f_38 <= 0
 id1028: - u_6 + f_38 <= 0
 id1029: - u_9 + f_38 <= 0
 id1032: - u_6 + f_39 <= 0
 id1033: - u_17 + f_39 <= 0
 id1036: - u_6 + f_39 <= 0
 id1037: - u_17 + f_39 <= 0
 id1040: - u_7 + f_40 <= 0
 id1041: - u_8 + f_40 <= 0
 id1044: - u_7 + f_40 <= 0
 id1045: - u_8 + f_40 <= 0
 id1048: - u_7 + f_41 <= 0
 id1049: - u_11 + f_41 <= 0
 id1052: - u_7 + f_41 <= 0
 id1053: - u_11 + f_41 <= 0
 id1056: - u_7 + f_42 <= 0
 id1057: - u_13 + f_42 <= 0
 id1060: - u_7 + f_42 <= 0
 id1061: - u_13 + f_42 <= 0
 id1064: - u_7 + f_43 <= 0
 id1065: - u_18 + f_43 <= 0
 id1068: - u_7 + f_43 <= 0
 id1069: - u_18 + f_43 <= 0
 id1072: - u_8 + f_44 <= 0
 id1073: - u_14 + f_44 <= 0
 id1076: - u_8 + f_44 <= 0
 id1077: - u_14 + f_44 <= 0
 id1080: - u_8 + f_45 <= 0
 id1081: - u_19 + f_45 <= 0
 id1084: - u_8 + f_45 <= 0
 id1085: - u_19 + f_45 <= 0
 id1088: - u_9 + f_46 <= 0
 id1089: - u_10 + f_46 <= 0
 id1092: - u_9 + f_46 <= 0
 id1093: - u_10 + f_46 <= 0
 id1096: - u_9 + f_47 <= 0
 id1097: - u_11 + f_47 <= 0
 id1100: - u_9 + f_47 <= 0
 id1101: - u_11 + f_47 <= 0
 id1104: - u_9 + f_48 <= 0
 id1105: - u_15 + f_48 <= 0
 id1108: - u_9 + f_48 <= 0
 id1109: - u_15 + f_48 <= 0
 id1112: - u_10 + f_49 <= 0
 id1113: - u_16 + f_49 <= 0
 id1116: - u_10 + f_49 <= 0
 id1117: - u_16 + f_49 <= 0
 id1120: - u_10 + f_50 <= 0
 id1121: - u_17 + f_50 <= 0
 id1124: - u_10 + f_50 <= 0
 id1125: - u_17 + f_50 <= 0
 id1128: - u_11 + f_51 <= 0
 id1129: - u_16 + f_51 <= 0
 id1132: - u_11 + f_51 <= 0
 id1133: - u_16 + f_51 <= 0
 id1136: - u_11 + f_52 <= 0
 id1137: - u_18 + f_52 <= 0
 id1140: - u_11 + f_52 <= 0
 id1141: - u_18 + f_52 <= 0
 id1144: - u_13 + f_53 <= 0
 id1145: - u_15 + f_53 <= 0
 id1148: - u_13 + f_53 <= 0
 id1149: - u_15 + f_53 <= 0
 id1152: - u_13 + f_54 <= 0
 id1153: - u_18 + f_54 <= 0
 id1156: - u_13 + f_54 <= 0
 id1157: - u_18 + f_54 <= 0
 id1160: - u_15 + f_55 <= 0
 id1161: - u_18 + f_55 <= 0
 id1164: - u_15 + f_55 <= 0
 id1165: - u_18 + f_55 <= 0
 id1168: - u_15 + f_56 <= 0
 id1169: - u_19 + f_56 <= 0
 id1172: - u_15 + f_56 <= 0
 id1173: - u_19 + f_56 <= 0
 id1176: - u_15 + f_57 <= 0
 id1177: - u_20 + f_57 <= 0
 id1180: - u_15 + f_57 <= 0
 id1181: - u_20 + f_57 <= 0
 id1184: - u_16 + f_58 <= 0
 id1185: - u_17 + f_58 <= 0
 id1188: - u_16 + f_58 <= 0
 id1189: - u_17 + f_58 <= 0
 id1192: - u_16 + f_59 <= 0
 id1193: - u_19 + f_59 <= 0
 id1196: - u_16 + f_59 <= 0
 id1197: - u_19 + f_59 <= 0
 id1200: - u_17 + f_60 <= 0
 id1201: - u_19 + f_60 <= 0
 id1204: - u_17 + f_60 <= 0
 id1205: - u_19 + f_60 <= 0
 id1208: - u_17 + f_61 <= 0
 id1209: - u_20 + f_61 <= 0
 id1212: - u_17 + f_61 <= 0
 id1213: - u_20 + f_61 <= 0
 id1216: - u_18 + f_62 <= 0
 id1217: - u_19 + f_62 <= 0
 id1220: - u_18 + f_62 <= 0
 id1221: - u_19 + f_62 <= 0
 id1224: - u_18 + f_63 <= 0
 id1225: - u_20 + f_63 <= 0
 id1228: - u_18 + f_63 <= 0
 id1229: - u_20 + f_63 <= 0
 id1232: - u_19 + f_64 <= 0
 id1233: - u_20 + f_64 <= 0
 id1236: - u_19 + f_64 <= 0
 id1237: - u_20 + f_64 <= 0
 id1240: - u_0 + f_65 <= 0
 id1241: - u_1 + f_65 <= 0
 id1244: - u_0 + f_65 <= 0
 id1245: - u_1 + f_65 <= 0
 id1248: - u_0 + f_66 <= 0
 id1249: - u_2 + f_66 <= 0
 id1252: - u_0 + f_66 <= 0
 id1253: - u_2 + f_66 <= 0
 id1256: - u_0 + f_67 <= 0
 id1257: - u_3 + f_67 <= 0
 id1260: - u_0 + f_67 <= 0
 id1261: - u_3 + f_67 <= 0
 id1264: - u_0 + f_68 <= 0
 id1265: - u_4 + f_68 <= 0
 id1268: - u_0 + f_68 <= 0
 id1269: - u_4 + f_68 <= 0
 id1272: - u_0 + f_69 <= 0
 id1273: - u_5 + f_69 <= 0
 id1276: - u_0 + f_69 <= 0
 id1277: - u_5 + f_69 <= 0
 id1280: - u_0 + f_70 <= 0
 id1281: - u_6 + f_70 <= 0
 id1284: - u_0 + f_70 <= 0
 id1285: - u_6 + f_70 <= 0
 id1288: - u_0 + f_71 <= 0
 id1289: - u_7 + f_71 <= 0
 id1292: - u_0 + f_71 <= 0
 id1293: - u_7 + f_71 <= 0
 id1296: - u_0 + f_72 <= 0
 id1297: - u_8 + f_72 <= 0
 id1300: - u_0 + f_72 <= 0
 id1301: - u_8 + f_72 <= 0
 id1304: - u_0 + f_73 <= 0
 id1305: - u_9 + f_73 <= 0
 id1308: - u_0 + f_73 <= 0
 id1309: - u_9 + f_73 <= 0
 id1312: - u_0 + f_74 <= 0
 id1313: - u_10 + f_74 <= 0
 id1316: - u_0 + f_74 <= 0
 id1317: - u_10 + f_74 <= 0
 id1320: - u_0 + f_75 <= 0
 id1321: - u_11 + f_75 <= 0
 id1324: - u_0 + f_75 <= 0
 id1325: - u_11 + f_75 <= 0
 id1328: - u_0 + f_76 <= 0
 id1329: - u_12 + f_76 <= 0
 id1332: - u_0 + f_76 <= 0
 id1333: - u_12 + f_76 <= 0
 id1336: - u_0 + f_77 <= 0
 id1337: - u_13 + f_77 <= 0
 id1340: - u_0 + f_77 <= 0
 id1341: - u_13 + f_77 <= 0
 id1344: - u_0 + f_78 <= 0
 id1345: - u_14 + f_78 <= 0
 id1348: - u_0 + f_78 <= 0
 id1349: - u_14 + f_78 <= 0
 id1352: - u_0 + f_79 <= 0
 id1353: - u_15 + f_79 <= 0
 id1356: - u_0 + f_79 <= 0
 id1357: - u_15 + f_79 <= 0
 id1360: - u_0 + f_80 <= 0
 id1361: - u_16 + f_80 <= 0
 id1364: - u_0 + f_80 <= 0
 id1365: - u_16 + f_80 <= 0
 id1368: - u_0 + f_81 <= 0
 id1369: - u_17 + f_81 <= 0
 id1372: - u_0 + f_81 <= 0
 id1373: - u_17 + f_81 <= 0
 id1376: - u_0 + f_82 <= 0
 id1377: - u_18 + f_82 <= 0
 id1380: - u_0 + f_82 <= 0
 id1381: - u_18 + f_82 <= 0
 id1384: - u_0 + f_83 <= 0
 id1385: - u_19 + f_83 <= 0
 id1388: - u_0 + f_83 <= 0
 id1389: - u_19 + f_83 <= 0
 id1392: - u_0 + f_84 <= 0
 id1393: - u_20 + f_84 <= 0
 id1396: - u_0 + f_84 <= 0
 id1397: - u_20 + f_84 <= 0
 id1400: - u_1 + f_85 <= 0
 id1401: - u_2 + f_85 <= 0
 id1404: - u_1 + f_85 <= 0
 id1405: - u_2 + f_85 <= 0
 id1408: - u_1 + f_86 <= 0
 id1409: - u_3 + f_86 <= 0
 id1412: - u_1 + f_86 <= 0
 id1413: - u_3 + f_86 <= 0
 id1416: - u_1 + f_87 <= 0
 id1417: - u_4 + f_87 <= 0
 id1420: - u_1 + f_87 <= 0
 id1421: - u_4 + f_87 <= 0
 id1424: - u_1 + f_88 <= 0
 id1425: - u_5 + f_88 <= 0
 id1428: - u_1 + f_88 <= 0
 id1429: - u_5 + f_88 <= 0
 id1432: - u_1 + f_89 <= 0
 id1433: - u_6 + f_89 <= 0
 id1436: - u_1 + f_89 <= 0
 id1437: - u_6 + f_89 <= 0
 id1440: - u_1 + f_90 <= 0
 id1441: - u_7 + f_90 <= 0
 id1444: - u_1 + f_90 <= 0
 id1445: - u_7 + f_90 <= 0
 id1448: - u_1 + f_91 <= 0
 id1449: - u_8 + f_91 <= 0
 id1452: - u_1 + f_91 <= 0
 id1453: - u_8 + f_91 <= 0
 id1456: - u_1 + f_92 <= 0
 id1457: - u_15 + f_92 <= 0
 id1460: - u_1 + f_92 <= 0
 id1461: - u_15 + f_92 <= 0
 id1464: - u_1 + f_93 <= 0
 id1465: - u_19 + f_93 <= 0
 id1468: - u_1 + f_93 <= 0
 id1469: - u_19 + f_93 <= 0
 id1472: - u_2 + f_94 <= 0
 id1473: - u_18 + f_94 <= 0
 id1476: - u_2 + f_94 <= 0
 id1477: - u_18 + f_94 <= 0
 id1480: - u_3 + f_95 <= 0
 id1481: - u_4 + f_95 <= 0
 id1484: - u_3 + f_95 <= 0
 id1485: - u_4 + f_95 <= 0
 id1488: - u_4 + f_96 <= 0
 id1489: - u_7 + f_96 <= 0
 id1492: - u_4 + f_96 <= 0
 id1493: - u_7 + f_96 <= 0
 id1496: - u_4 + f_97 <= 0
 id1497: - u_12 + f_97 <= 0
 id1500: - u_4 + f_97 <= 0
 id1501: - u_12 + f_97 <= 0
 id1504: - u_4 + f_98 <= 0
 id1505: - u_15 + f_98 <= 0
 id1508: - u_4 + f_98 <= 0
 id1509: - u_15 + f_98 <= 0
 id1512: - u_5 + f_99 <= 0
 id1513: - u_7 + f_99 <= 0
 id1516: - u_5 + f_99 <= 0
 id1517: - u_7 + f_99 <= 0
 id1520: - u_5 + f_100 <= 0
 id1521: - u_16 + f_100 <= 0
 id1524: - u_5 + f_100 <= 0
 id1525: - u_16 + f_100 <= 0
 id1528: - u_5 + f_101 <= 0
 id1529: - u_17 + f_101 <= 0
 id1532: - u_5 + f_101 <= 0
 id1533: - u_17 + f_101 <= 0
 id1536: - u_5 + f_102 <= 0
 id1537: - u_19 + f_102 <= 0
 id1540: - u_5 + f_102 <= 0
 id1541: - u_19 + f_102 <= 0
 id1544: - u_6 + f_103 <= 0
 id1545: - u_9 + f_103 <= 0
 id1548: - u_6 + f_103 <= 0
 id1549: - u_9 + f_103 <= 0
 id1552: - u_6 + f_104 <= 0
 id1553: - u_17 + f_104 <= 0
 id1556: - u_6 + f_104 <= 0
 id1557: - u_17 + f_104 <= 0
 id1560: - u_7 + f_105 <= 0
 id1561: - u_8 + f_105 <= 0
 id1564: - u_7 + f_105 <= 0
 id1565: - u_8 + f_105 <= 0
 id1568: - u_7 + f_106 <= 0
 id1569: - u_11 + f_106 <= 0
 id1572: - u_7 + f_106 <= 0
 id1573: - u_11 + f_106 <= 0
 id1576: - u_7 + f_107 <= 0
 id1577: - u_13 + f_107 <= 0
 id1580: - u_7 + f_107 <= 0
 id1581: - u_13 + f_107 <= 0
 id1584: - u_7 + f_108 <= 0
 id1585: - u_18 + f_108 <= 0
 id1588: - u_7 + f_108 <= 0
 id1589: - u_18 + f_108 <= 0
 id1592: - u_8 + f_109 <= 0
 id1593: - u_14 + f_109 <= 0
 id1596: - u_8 + f_109 <= 0
 id1597: - u_14 + f_109 <= 0
 id1600: - u_8 + f_110 <= 0
 id1601: - u_19 + f_110 <= 0
 id1604: - u_8 + f_110 <= 0
 id1605: - u_19 + f_110 <= 0
 id1608: - u_9 + f_111 <= 0
 id1609: - u_10 + f_111 <= 0
 id1612: - u_9 + f_111 <= 0
 id1613: - u_10 + f_111 <= 0
 id1616: - u_9 + f_112 <= 0
 id1617: - u_11 + f_112 <= 0
 id1620: - u_9 + f_112 <= 0
 id1621: - u_11 + f_112 <= 0
 id1624: - u_9 + f_113 <= 0
 id1625: - u_15 + f_113 <= 0
 id1628: - u_9 + f_113 <= 0
 id1629: - u_15 + f_113 <= 0
 id1632: - u_10 + f_114 <= 0
 id1633: - u_16 + f_114 <= 0
 id1636: - u_10 + f_114 <= 0
 id1637: - u_16 + f_114 <= 0
 id1640: - u_10 + f_115 <= 0
 id1641: - u_17 + f_115 <= 0
 id1644: - u_10 + f_115 <= 0
 id1645: - u_17 + f_115 <= 0
 id1648: - u_11 + f_116 <= 0
 id1649: - u_16 + f_116 <= 0
 id1652: - u_11 + f_116 <= 0
 id1653: - u_16 + f_116 <= 0
 id1656: - u_11 + f_117 <= 0
 id1657: - u_18 + f_117 <= 0
 id1660: - u_11 + f_117 <= 0
 id1661: - u_18 + f_117 <= 0
 id1664: - u_13 + f_118 <= 0
 id1665: - u_15 + f_118 <= 0
 id1668: - u_13 + f_118 <= 0
 id1669: - u_15 + f_118 <= 0
 id1672: - u_13 + f_119 <= 0
 id1673: - u_18 + f_119 <= 0
 id1676: - u_13 + f_119 <= 0
 id1677: - u_18 + f_119 <= 0
 id1680: - u_15 + f_120 <= 0
 id1681: - u_18 + f_120 <= 0
 id1684: - u_15 + f_120 <= 0
 id1685: - u_18 + f_120 <= 0
 id1688: - u_15 + f_121 <= 0
 id1689: - u_19 + f_121 <= 0
 id1692: - u_15 + f_121 <= 0
 id1693: - u_19 + f_121 <= 0
 id1696: - u_15 + f_122 <= 0
 id1697: - u_20 + f_122 <= 0
 id1700: - u_15 + f_122 <= 0
 id1701: - u_20 + f_122 <= 0
 id1704: - u_16 + f_123 <= 0
 id1705: - u_17 + f_123 <= 0
 id1708: - u_16 + f_123 <= 0
 id1709: - u_17 + f_123 <= 0
 id1712: - u_16 + f_124 <= 0
 id1713: - u_19 + f_124 <= 0
 id1716: - u_16 + f_124 <= 0
 id1717: - u_19 + f_124 <= 0
 id1720: - u_17 + f_125 <= 0
 id1721: - u_19 + f_125 <= 0
 id1724: - u_17 + f_125 <= 0
 id1725: - u_19 + f_125 <= 0
 id1728: - u_17 + f_126 <= 0
 id1729: - u_20 + f_126 <= 0
 id1732: - u_17 + f_126 <= 0
 id1733: - u_20 + f_126 <= 0
 id1736: - u_18 + f_127 <= 0
 id1737: - u_19 + f_127 <= 0
 id1740: - u_18 + f_127 <= 0
 id1741: - u_19 + f_127 <= 0
 id1744: - u_18 + f_128 <= 0
 id1745: - u_20 + f_128 <= 0
 id1748: - u_18 + f_128 <= 0
 id1749: - u_20 + f_128 <= 0
 id1752: - u_19 + f_129 <= 0
 id1753: - u_20 + f_129 <= 0
 id1756: - u_19 + f_129 <= 0
 id1757: - u_20 + f_129 <= 0
 id1759: f_85 + f_86 + f_87 + f_88 + f_89 + f_90 + f_91 + f_92 + f_93 <= 1
 id1761: f_20 + f_94 <= 1
 id1763: f_21 + f_95 <= 1
 id1765: f_22 + f_30 + f_96 + f_97 + f_98 <= 1
 id1767: f_23 + f_99 + f_100 + f_101 + f_102 <= 1
 id1769: f_24 + f_103 + f_104 <= 1
 id1771: f_25 + f_31 + f_34 + f_105 + f_106 + f_107 + f_108 <= 1
 id1773: f_26 + f_40 + f_109 + f_110 <= 1
 id1775: f_38 + f_111 + f_112 + f_113 <= 1
 id1777: f_46 + f_114 + f_115 <= 1
 id1779: f_41 + f_47 + f_116 + f_117 <= 1
 id1781: f_32 <= 1
 id1783: f_42 + f_118 + f_119 <= 1
 id1785: f_44 <= 1
 id1787: f_27 + f_33 + f_48 + f_53 + f_120 + f_121 + f_122 <= 1
 id1789: f_35 + f_49 + f_51 + f_123 + f_124 <= 1
 id1791: f_36 + f_39 + f_50 + f_58 + f_125 + f_126 <= 1
 id1793: f_29 + f_43 + f_52 + f_54 + f_55 + f_127 + f_128 <= 1
 id1795: f_28 + f_37 + f_45 + f_56 + f_59 + f_60 + f_62 + f_129 <= 1
 id1797: f_57 + f_61 + f_63 + f_64 <= 1
 id1799: f_20 + f_21 + f_22 + f_23 + f_24 + f_25 + f_26 + f_27 + f_28 + f_29
         + f_30 + f_31 + f_32 + f_33 + f_34 + f_35 + f_36 + f_37 + f_38 + f_39
         + f_40 + f_41 + f_42 + f_43 + f_44 + f_45 + f_46 + f_47 + f_48 + f_49
         + f_50 + f_51 + f_52 + f_53 + f_54 + f_55 + f_56 + f_57 + f_58 + f_59
         + f_60 + f_61 + f_62 + f_63 + f_64 + f_85 + f_86 + f_87 + f_88 + f_89
         + f_90 + f_91 + f_92 + f_93 + f_94 + f_95 + f_96 + f_97 + f_98 + f_99
         + f_100 + f_101 + f_102 + f_103 + f_104 + f_105 + f_106 + f_107
         + f_108 + f_109 + f_110 + f_111 + f_112 + f_113 + f_114 + f_115
         + f_116 + f_117 + f_118 + f_119 + f_120 + f_121 + f_122 + f_123
         + f_124 + f_125 + f_126 + f_127 + f_128 + f_129  = 19
 id1802: u_1 - u_2 + 201 f_20 <= 200
 id1805: - u_1 + u_2 + 201 f_85 <= 200
 id1808: u_1 - u_3 + 201 f_21 <= 200
 id1811: - u_1 + u_3 + 201 f_86 <= 200
 id1814: u_1 - u_4 + 201 f_22 <= 200
 id1817: - u_1 + u_4 + 201 f_87 <= 200
 id1820: u_1 - u_5 + 201 f_23 <= 200
 id1823: - u_1 + u_5 + 201 f_88 <= 200
 id1826: u_1 - u_6 + 201 f_24 <= 200
 id1829: - u_1 + u_6 + 201 f_89 <= 200
 id1832: u_1 - u_7 + 201 f_25 <= 200
 id1835: - u_1 + u_7 + 201 f_90 <= 200
 id1838: u_1 - u_8 + 201 f_26 <= 200
 id1841: - u_1 + u_8 + 201 f_91 <= 200
 id1844: u_1 - u_15 + 201 f_27 <= 200
 id1847: - u_1 + u_15 + 201 f_92 <= 200
 id1850: u_1 - u_19 + 201 f_28 <= 200
 id1853: - u_1 + u_19 + 201 f_93 <= 200
 id1856: u_2 - u_18 + 201 f_29 <= 200
 id1859: - u_2 + u_18 + 201 f_94 <= 200
 id1862: u_3 - u_4 + 201 f_30 <= 200
 id1865: - u_3 + u_4 + 201 f_95 <= 200
 id1868: u_4 - u_7 + 201 f_31 <= 200
 id1871: - u_4 + u_7 + 201 f_96 <= 200
 id1874: u_4 - u_12 + 201 f_32 <= 200
 id1877: - u_4 + u_12 + 201 f_97 <= 200
 id1880: u_4 - u_15 + 201 f_33 <= 200
 id1883: - u_4 + u_15 + 201 f_98 <= 200
 id1886: u_5 - u_7 + 201 f_34 <= 200
 id1889: - u_5 + u_7 + 201 f_99 <= 200
 id1892: u_5 - u_16 + 201 f_35 <= 200
 id1895: - u_5 + u_16 + 201 f_100 <= 200
 id1898: u_5 - u_17 + 201 f_36 <= 200
 id1901: - u_5 + u_17 + 201 f_101 <= 200
 id1904: u_5 - u_19 + 201 f_37 <= 200
 id1907: - u_5 + u_19 + 201 f_102 <= 200
 id1910: u_6 - u_9 + 201 f_38 <= 200
 id1913: - u_6 + u_9 + 201 f_103 <= 200
 id1916: u_6 - u_17 + 201 f_39 <= 200
 id1919: - u_6 + u_17 + 201 f_104 <= 200
 id1922: u_7 - u_8 + 201 f_40 <= 200
 id1925: - u_7 + u_8 + 201 f_105 <= 200
 id1928: u_7 - u_11 + 201 f_41 <= 200
 id1931: - u_7 + u_11 + 201 f_106 <= 200
 id1934: u_7 - u_13 + 201 f_42 <= 200
 id1937: - u_7 + u_13 + 201 f_107 <= 200
 id1940: u_7 - u_18 + 201 f_43 <= 200
 id1943: - u_7 + u_18 + 201 f_108 <= 200
 id1946: u_8 - u_14 + 201 f_44 <= 200
 id1949: - u_8 + u_14 + 201 f_109 <= 200
 id1952: u_8 - u_19 + 201 f_45 <= 200
 id1955: - u_8 + u_19 + 201 f_110 <= 200
 id1958: u_9 - u_10 + 201 f_46 <= 200
 id1961: - u_9 + u_10 + 201 f_111 <= 200
 id1964: u_9 - u_11 + 201 f_47 <= 200
 id1967: - u_9 + u_11 + 201 f_112 <= 200
 id1970: u_9 - u_15 + 201 f_48 <= 200
 id1973: - u_9 + u_15 + 201 f_113 <= 200
 id1976: u_10 - u_16 + 201 f_49 <= 200
 id1979: - u_10 + u_16 + 201 f_114 <= 200
 id1982: u_10 - u_17 + 201 f_50 <= 200
 id1985: - u_10 + u_17 + 201 f_115 <= 200
 id1988: u_11 - u_16 + 201 f_51 <= 200
 id1991: - u_11 + u_16 + 201 f_116 <= 200
 id1994: u_11 - u_18 + 201 f_52 <= 200
 id1997: - u_11 + u_18 + 201 f_117 <= 200
 id2000: u_13 - u_15 + 201 f_53 <= 200
 id2003: - u_13 + u_15 + 201 f_118 <= 200
 id2006: u_13 - u_18 + 201 f_54 <= 200
 id2009: - u_13 + u_18 + 201 f_119 <= 200
 id2012: u_15 - u_18 + 201 f_55 <= 200
 id2015: - u_15 + u_18 + 201 f_120 <= 200
 id2018: u_15 - u_19 + 201 f_56 <= 200
 id2021: - u_15 + u_19 + 201 f_121 <= 200
 id2024: u_15 - u_20 + 201 f_57 <= 200
 id2027: - u_15 + u_20 + 201 f_122 <= 200
 id2030: u_16 - u_17 + 201 f_58 <= 200
 id2033: - u_16 + u_17 + 201 f_123 <= 200
 id2036: u_16 - u_19 + 201 f_59 <= 200
 id2039: - u_16 + u_19 + 201 f_124 <= 200
 id2042: u_17 - u_19 + 201 f_60 <= 200
 id2045: - u_17 + u_19 + 201 f_125 <= 200
 id2048: u_17 - u_20 + 201 f_61 <= 200
 id2051: - u_17 + u_20 + 201 f_126 <= 200
 id2054: u_18 - u_19 + 201 f_62 <= 200
 id2057: - u_18 + u_19 + 201 f_127 <= 200
 id2060: u_18 - u_20 + 201 f_63 <= 200
 id2063: - u_18 + u_20 + 201 f_128 <= 200
 id2066: u_19 - u_20 + 201 f_64 <= 200
 id2069: - u_19 + u_20 + 201 f_129 <= 200
Bounds
 0 <= x_20 <= 1
 0 <= x_21 <= 1
 0 <= x_22 <= 1
 0 <= x_23 <= 1
 0 <= x_24 <= 1
 0 <= x_25 <= 1
 0 <= x_26 <= 1
 0 <= x_27 <= 1
 0 <= x_28 <= 1
 0 <= x_29 <= 1
 0 <= x_30 <= 1
 0 <= x_31 <= 1
 0 <= x_32 <= 1
 0 <= x_33 <= 1
 0 <= x_34 <= 1
 0 <= x_35 <= 1
 0 <= x_36 <= 1
 0 <= x_37 <= 1
 0 <= x_38 <= 1
 0 <= x_39 <= 1
 0 <= x_40 <= 1
 0 <= x_41 <= 1
 0 <= x_42 <= 1
 0 <= x_43 <= 1
 0 <= x_44 <= 1
 0 <= x_45 <= 1
 0 <= x_46 <= 1
 0 <= x_47 <= 1
 0 <= x_48 <= 1
 0 <= x_49 <= 1
 0 <= x_50 <= 1
 0 <= x_51 <= 1
 0 <= x_52 <= 1
 0 <= x_53 <= 1
 0 <= x_54 <= 1
 0 <= x_55 <= 1
 0 <= x_56 <= 1
 0 <= x_57 <= 1
 0 <= x_58 <= 1
 0 <= x_59 <= 1
 0 <= x_60 <= 1
 0 <= x_61 <= 1
 0 <= x_62 <= 1
 0 <= x_63 <= 1
 0 <= x_64 <= 1
      id2068 = 0
      u_1 >= 0
      u_2 >= 0
      u_3 >= 0
      u_4 >= 0
      u_5 >= 0
      u_6 >= 0
      u_7 >= 0
      u_8 >= 0
      u_9 >= 0
      u_10 >= 0
      u_11 >= 0
      u_12 >= 0
      u_13 >= 0
      u_14 >= 0
      u_15 >= 0
      u_16 >= 0
      u_17 >= 0
      u_18 >= 0
      u_19 >= 0
      u_20 >= 0
      u_0 >= 0
 0 <= x_0 <= 1
 0 <= x_1 <= 1
 0 <= x_2 <= 1
 0 <= x_3 <= 1
 0 <= x_4 <= 1
 0 <= x_5 <= 1
 0 <= x_6 <= 1
 0 <= x_7 <= 1
 0 <= x_8 <= 1
 0 <= x_9 <= 1
 0 <= x_10 <= 1
 0 <= x_11 <= 1
 0 <= x_12 <= 1
 0 <= x_13 <= 1
 0 <= x_14 <= 1
 0 <= x_15 <= 1
 0 <= x_16 <= 1
 0 <= x_17 <= 1
 0 <= x_18 <= 1
 0 <= x_19 <= 1
      u2_0 >= 0
      u2_1 >= 0
      u2_2 >= 0
      u2_3 >= 0
      u2_4 >= 0
      u2_5 >= 0
      u2_6 >= 0
      u2_7 >= 0
      u2_8 >= 0
      u2_9 >= 0
      u2_10 >= 0
      u2_11 >= 0
      u2_12 >= 0
      u2_13 >= 0
      u2_14 >= 0
      u2_15 >= 0
      u2_16 >= 0
      u2_17 >= 0
      u2_18 >= 0
      u2_19 >= 0
      u2_20 >= 0
 0 <= f_0 <= 1
 0 <= f_1 <= 1
 0 <= f_2 <= 1
 0 <= f_3 <= 1
 0 <= f_4 <= 1
 0 <= f_5 <= 1
 0 <= f_6 <= 1
 0 <= f_7 <= 1
 0 <= f_8 <= 1
 0 <= f_9 <= 1
 0 <= f_10 <= 1
 0 <= f_11 <= 1
 0 <= f_12 <= 1
 0 <= f_13 <= 1
 0 <= f_14 <= 1
 0 <= f_15 <= 1
 0 <= f_16 <= 1
 0 <= f_17 <= 1
 0 <= f_18 <= 1
 0 <= f_19 <= 1
 0 <= f_20 <= 1
 0 <= f_21 <= 1
 0 <= f_22 <= 1
 0 <= f_23 <= 1
 0 <= f_24 <= 1
 0 <= f_25 <= 1
 0 <= f_26 <= 1
 0 <= f_27 <= 1
 0 <= f_28 <= 1
 0 <= f_29 <= 1
 0 <= f_30 <= 1
 0 <= f_31 <= 1
 0 <= f_32 <= 1
 0 <= f_33 <= 1
 0 <= f_34 <= 1
 0 <= f_35 <= 1
 0 <= f_36 <= 1
 0 <= f_37 <= 1
 0 <= f_38 <= 1
 0 <= f_39 <= 1
 0 <= f_40 <= 1
 0 <= f_41 <= 1
 0 <= f_42 <= 1
 0 <= f_43 <= 1
 0 <= f_44 <= 1
 0 <= f_45 <= 1
 0 <= f_46 <= 1
 0 <= f_47 <= 1
 0 <= f_48 <= 1
 0 <= f_49 <= 1
 0 <= f_50 <= 1
 0 <= f_51 <= 1
 0 <= f_52 <= 1
 0 <= f_53 <= 1
 0 <= f_54 <= 1
 0 <= f_55 <= 1
 0 <= f_56 <= 1
 0 <= f_57 <= 1
 0 <= f_58 <= 1
 0 <= f_59 <= 1
 0 <= f_60 <= 1
 0 <= f_61 <= 1
 0 <= f_62 <= 1
 0 <= f_63 <= 1
 0 <= f_64 <= 1
 0 <= f_65 <= 1
 0 <= f_66 <= 1
 0 <= f_67 <= 1
 0 <= f_68 <= 1
 0 <= f_69 <= 1
 0 <= f_70 <= 1
 0 <= f_71 <= 1
 0 <= f_72 <= 1
 0 <= f_73 <= 1
 0 <= f_74 <= 1
 0 <= f_75 <= 1
 0 <= f_76 <= 1
 0 <= f_77 <= 1
 0 <= f_78 <= 1
 0 <= f_79 <= 1
 0 <= f_80 <= 1
 0 <= f_81 <= 1
 0 <= f_82 <= 1
 0 <= f_83 <= 1
 0 <= f_84 <= 1
 0 <= f_85 <= 1
 0 <= f_86 <= 1
 0 <= f_87 <= 1
 0 <= f_88 <= 1
 0 <= f_89 <= 1
 0 <= f_90 <= 1
 0 <= f_91 <= 1
 0 <= f_92 <= 1
 0 <= f_93 <= 1
 0 <= f_94 <= 1
 0 <= f_95 <= 1
 0 <= f_96 <= 1
 0 <= f_97 <= 1
 0 <= f_98 <= 1
 0 <= f_99 <= 1
 0 <= f_100 <= 1
 0 <= f_101 <= 1
 0 <= f_102 <= 1
 0 <= f_103 <= 1
 0 <= f_104 <= 1
 0 <= f_105 <= 1
 0 <= f_106 <= 1
 0 <= f_107 <= 1
 0 <= f_108 <= 1
 0 <= f_109 <= 1
 0 <= f_110 <= 1
 0 <= f_111 <= 1
 0 <= f_112 <= 1
 0 <= f_113 <= 1
 0 <= f_114 <= 1
 0 <= f_115 <= 1
 0 <= f_116 <= 1
 0 <= f_117 <= 1
 0 <= f_118 <= 1
 0 <= f_119 <= 1
 0 <= f_120 <= 1
 0 <= f_121 <= 1
 0 <= f_122 <= 1
 0 <= f_123 <= 1
 0 <= f_124 <= 1
 0 <= f_125 <= 1
 0 <= f_126 <= 1
 0 <= f_127 <= 1
 0 <= f_128 <= 1
 0 <= f_129 <= 1
Binaries
 x_20  x_21  x_22  x_23  x_24  x_25  x_26  x_27  x_28  x_29  x_30  x_31  x_32 
 x_33  x_34  x_35  x_36  x_37  x_38  x_39  x_40  x_41  x_42  x_43  x_44  x_45 
 x_46  x_47  x_48  x_49  x_50  x_51  x_52  x_53  x_54  x_55  x_56  x_57  x_58 
 x_59  x_60  x_61  x_62  x_63  x_64  x_0  x_1  x_2  x_3  x_4  x_5  x_6  x_7 
 x_8  x_9  x_10  x_11  x_12  x_13  x_14  x_15  x_16  x_17  x_18  x_19  f_0 
 f_1  f_2  f_3  f_4  f_5  f_6  f_7  f_8  f_9  f_10  f_11  f_12  f_13  f_14 
 f_15  f_16  f_17  f_18  f_19  f_20  f_21  f_22  f_23  f_24  f_25  f_26  f_27 
 f_28  f_29  f_30  f_31  f_32  f_33  f_34  f_35  f_36  f_37  f_38  f_39  f_40 
 f_41  f_42  f_43  f_44  f_45  f_46  f_47  f_48  f_49  f_50  f_51  f_52  f_53 
 f_54  f_55  f_56  f_57  f_58  f_59  f_60  f_61  f_62  f_63  f_64  f_65  f_66 
 f_67  f_68  f_69  f_70  f_71  f_72  f_73  f_74  f_75  f_76  f_77  f_78  f_79 
 f_80  f_81  f_82  f_83  f_84  f_85  f_86  f_87  f_88  f_89  f_90  f_91  f_92 
 f_93  f_94  f_95  f_96  f_97  f_98  f_99  f_100  f_101  f_102  f_103  f_104 
 f_105  f_106  f_107  f_108  f_109  f_110  f_111  f_112  f_113  f_114  f_115 
 f_116  f_117  f_118  f_119  f_120  f_121  f_122  f_123  f_124  f_125  f_126 
 f_127  f_128  f_129 
Generals
 u_1  u_2  u_3  u_4  u_5  u_6  u_7  u_8  u_9  u_10  u_11  u_12  u_13  u_14 
 u_15  u_16  u_17  u_18  u_19  u_20  u_0  u2_0  u2_1  u2_2  u2_3  u2_4  u2_5 
 u2_6  u2_7  u2_8  u2_9  u2_10  u2_11  u2_12  u2_13  u2_14  u2_15  u2_16 
 u2_17  u2_18  u2_19  u2_20 
End
